column=9;
row=9;
left=[4, 0, 1, 2, 0, 3, 0, 4, 2];
right=[0, 4, 0, 0, 3, 3, 2, 2, 4];
top=[0, 3, 0, 4, 0, 0, 0, 4, 1];
bottom=[0, 0, 2, 0, 3, 2, 2, 0, 0];
Board=[|6,7,4,2,3,0,0,0,0|5,0,0,4,9,0,8,0,0|9,0,0,1,7,0,6,0,0|0,1,9,0,0,3,4,6,0|3,0,5,9,6,0,2,0,0|7,2,0,5,8,0,0,0,1|2,0,0,8,0,7,0,0,0|1,0,7,6,0,0,0,2,0|4,0,8,3,0,0,0,0,6|]